NAME : instances/clustered-mixed-tsp/instance-45.tsp
COMMENT : No Comment
TYPE : TSP
DIMENSION: 47
EDGE_WEIGHT_TYPE : EUC_2D
NODE_COORD_SECTION
1 172 834 
2 1835 1593 
3 951 1471 
4 527 55 
5 568 91 
6 342 911 
7 1796 1709 
8 1440 1438 
9 283 743 
10 1427 1558 
11 907 1493 
12 529 55 
13 1681 1732 
14 656 -23 
15 1696 1671 
16 283 784 
17 168 777 
18 593 35 
19 515 124 
20 1796 1570 
21 624 50 
22 1763 1624 
23 759 1489 
24 657 -57 
25 1737 1544 
26 280 741 
27 1850 1724 
28 580 -50 
29 1586 1722 
30 178 912 
31 266 878 
32 1510 1528 
33 1744 1583 
34 516 35 
35 293 1437 
36 797 1521 
37 952 1502 
38 233 877 
39 612 -23 
40 1796 1714 
41 1818 1629 
42 327 280 
43 1491 1550 
44 1448 1533 
45 339 899 
46 556 -22 
47 240 920 
EOF
